SECTION Graph
Nodes 12
Edges 26
E 1 2 2
E 1 4 1
E 1 11 2
E 2 3 2
E 2 4 2
E 2 12 2
E 3 4 2
E 3 6 3
E 3 12 2
E 3 5 2
E 4 5 1
E 4 6 2
E 4 11 2
E 5 6 2
E 5 7 1
E 7 8 1
E 5 11 2
E 5 8 2
E 7 11 2
E 7 9 2
E 7 10 2
E 8 10 2
E 9 10 2
E 6 12 2
E 8 12 2
E 10 12 2
END

SECTION Terminals
Terminals 3
T 1
T 5
T 8
END

EOF